\ This file has been generated by DOcplex
\ ENCODING=ISO-8859-1
\Problem name: Orandom17742_6.lp

Minimize
 obj: - 1440.000010846340 x0 - 720.000005423170 x1 - 360.000002711585 x2
      - 1416.000010846340 x3 - 708.000005423170 x4 - 354.000002711585 x5 + [
      848.000006197909 x0^2 + 848.000006197909 x0*x1 + 424.000003098954 x0*x2
      + 1632.000012395818 x0*x3 + 816.000006197909 x0*x4
      + 408.000003098954 x0*x5 + 212.000001549477 x1^2 + 212.000001549477 x1*x2
      + 816.000006197909 x1*x3 + 408.000003098954 x1*x4 + 204.000001549477 x1*x5
      + 53.000000387369 x2^2 + 408.000003098954 x2*x3 + 204.000001549477 x2*x4
      + 102.000000774739 x2*x5 + 880.000006197909 x3^2 + 880.000006197909 x3*x4
      + 440.000003098954 x3*x5 + 220.000001549477 x4^2 + 220.000001549477 x4*x5
      + 55.000000387369 x5^2 ]/2 + 1249.500009490548
Subject To

Bounds
 0 <= x0 <= 1
 0 <= x1 <= 1
 0 <= x2 <= 1
 0 <= x3 <= 1
 0 <= x4 <= 1
 0 <= x5 <= 1

Binaries
 x0 x1 x2 x3 x4 x5
End
